results/sol/FMS_04_makespan_heurTrue.sol
# Solution for model JobShopModel
# Objective value = 3152
y[0,0,0] 0
y[0,0,1] 1
y[0,1,0] 1
y[0,1,1] 0
y[1,0,1] 1
y[1,1,1] 1
y[2,0,0] 1
y[2,0,1] 0
y[2,1,0] 1
y[2,1,1] 0
x[0,0,0,0] 0
x[0,0,0,1] 1
x[0,0,1,0] 0
x[0,0,1,1] 0
x[0,0,2,0] 0
x[0,0,2,1] 1
x[0,1,0,0] 0
x[0,1,0,1] 0
x[0,1,1,0] 0
x[0,1,1,1] 0
x[0,1,2,0] 0
x[0,1,2,1] 0
x[1,0,0,0] 0
x[1,0,0,1] 0
x[1,0,1,0] 0
x[1,0,1,1] 1
x[1,0,2,0] 0
x[1,0,2,1] 0
x[1,1,0,0] 0
x[1,1,0,1] 0
x[1,1,1,0] 0
x[1,1,1,1] 0
x[1,1,2,0] 0
x[1,1,2,1] 0
x[2,0,0,0] 0
x[2,0,0,1] 0
x[2,0,1,0] 0
x[2,0,1,1] 0
x[2,0,2,0] 0
x[2,0,2,1] 1
x[2,1,0,0] 0
x[2,1,0,1] 0
x[2,1,1,0] 0
x[2,1,1,1] 0
x[2,1,2,0] 0
x[2,1,2,1] 0
s[0,0,0] 0
s[0,0,1] 534
s[0,1,0] 480
s[0,1,1] 0
s[1,0,1] 1259
s[1,1,1] 809
s[2,0,0] 969
s[2,0,1] 0
s[2,1,0] 599
s[2,1,1] 0
Z_FO 3152
